c File: data_files/evolved_graphs/g3640.col
c
c Auto generated graph
c
p edge 100 1520
e 1 3
e 1 10
e 1 17
e 1 19
e 1 21
e 1 24
e 1 25
e 1 28
e 1 29
e 1 31
e 1 35
e 1 36
e 1 39
e 1 41
e 1 43
e 1 44
e 1 48
e 1 49
e 1 50
e 1 51
e 1 52
e 1 62
e 1 73
e 1 78
e 1 92
e 1 93
e 1 94
e 1 97
e 1 98
e 2 6
e 2 7
e 2 8
e 2 9
e 2 10
e 2 11
e 2 13
e 2 15
e 2 16
e 2 17
e 2 18
e 2 22
e 2 23
e 2 25
e 2 27
e 2 29
e 2 30
e 2 33
e 2 38
e 2 40
e 2 41
e 2 44
e 2 46
e 2 47
e 2 50
e 2 51
e 2 52
e 2 74
e 2 75
e 2 85
e 2 88
e 2 96
e 2 100
e 3 5
e 3 7
e 3 17
e 3 19
e 3 28
e 3 36
e 3 37
e 3 39
e 3 41
e 3 42
e 3 45
e 3 46
e 3 51
e 3 52
e 3 79
e 3 81
e 3 83
e 3 84
e 3 89
e 3 97
e 3 98
e 3 99
e 4 7
e 4 9
e 4 10
e 4 13
e 4 14
e 4 15
e 4 23
e 4 26
e 4 29
e 4 32
e 4 40
e 4 41
e 4 43
e 4 47
e 4 50
e 4 51
e 4 52
e 4 64
e 4 71
e 4 73
e 4 74
e 4 86
e 4 89
e 4 90
e 4 95
e 4 99
e 5 8
e 5 9
e 5 15
e 5 20
e 5 22
e 5 26
e 5 28
e 5 29
e 5 30
e 5 32
e 5 34
e 5 35
e 5 36
e 5 37
e 5 39
e 5 40
e 5 41
e 5 43
e 5 45
e 5 46
e 5 47
e 5 49
e 5 50
e 5 51
e 5 52
e 5 53
e 5 73
e 5 74
e 5 78
e 5 94
e 5 98
e 6 7
e 6 8
e 6 13
e 6 14
e 6 21
e 6 22
e 6 24
e 6 25
e 6 26
e 6 28
e 6 29
e 6 30
e 6 32
e 6 35
e 6 39
e 6 40
e 6 42
e 6 44
e 6 46
e 6 47
e 6 51
e 6 52
e 6 71
e 6 73
e 6 74
e 6 76
e 6 78
e 6 85
e 6 87
e 6 90
e 6 97
e 7 11
e 7 13
e 7 16
e 7 17
e 7 19
e 7 20
e 7 22
e 7 23
e 7 25
e 7 26
e 7 27
e 7 30
e 7 31
e 7 34
e 7 35
e 7 36
e 7 37
e 7 39
e 7 43
e 7 44
e 7 47
e 7 49
e 7 52
e 7 64
e 7 74
e 7 75
e 7 79
e 7 80
e 7 85
e 7 86
e 8 10
e 8 13
e 8 14
e 8 25
e 8 29
e 8 31
e 8 32
e 8 35
e 8 42
e 8 43
e 8 46
e 8 47
e 8 48
e 8 50
e 8 52
e 8 59
e 8 66
e 8 76
e 8 88
e 8 89
e 8 94
e 9 10
e 9 11
e 9 13
e 9 14
e 9 16
e 9 17
e 9 18
e 9 19
e 9 20
e 9 23
e 9 24
e 9 26
e 9 28
e 9 31
e 9 33
e 9 34
e 9 37
e 9 38
e 9 42
e 9 43
e 9 45
e 9 46
e 9 50
e 9 52
e 9 53
e 9 71
e 9 72
e 9 73
e 9 75
e 9 83
e 9 86
e 10 12
e 10 14
e 10 16
e 10 18
e 10 22
e 10 26
e 10 27
e 10 28
e 10 29
e 10 31
e 10 32
e 10 35
e 10 36
e 10 37
e 10 42
e 10 43
e 10 51
e 10 52
e 10 61
e 10 86
e 10 89
e 10 93
e 10 95
e 10 98
e 11 15
e 11 16
e 11 17
e 11 19
e 11 21
e 11 23
e 11 25
e 11 33
e 11 35
e 11 36
e 11 38
e 11 43
e 11 45
e 11 46
e 11 47
e 11 49
e 11 51
e 11 53
e 11 54
e 11 56
e 11 59
e 11 60
e 11 63
e 11 64
e 11 65
e 11 66
e 11 68
e 11 69
e 11 70
e 11 88
e 11 90
e 11 95
e 12 17
e 12 22
e 12 23
e 12 24
e 12 25
e 12 28
e 12 29
e 12 31
e 12 35
e 12 39
e 12 40
e 12 48
e 12 53
e 12 54
e 12 58
e 12 61
e 12 62
e 12 65
e 12 67
e 12 69
e 12 70
e 12 74
e 12 75
e 12 76
e 12 79
e 12 84
e 12 88
e 13 14
e 13 15
e 13 17
e 13 20
e 13 21
e 13 23
e 13 31
e 13 32
e 13 34
e 13 42
e 13 57
e 13 60
e 13 61
e 13 63
e 13 64
e 13 65
e 13 69
e 13 73
e 13 79
e 13 93
e 13 98
e 14 15
e 14 18
e 14 20
e 14 22
e 14 23
e 14 28
e 14 31
e 14 33
e 14 34
e 14 38
e 14 39
e 14 41
e 14 42
e 14 47
e 14 50
e 14 51
e 14 52
e 14 53
e 14 54
e 14 57
e 14 59
e 14 60
e 14 65
e 14 66
e 14 69
e 14 73
e 14 77
e 14 85
e 14 90
e 14 97
e 15 16
e 15 20
e 15 21
e 15 22
e 15 28
e 15 32
e 15 34
e 15 35
e 15 37
e 15 38
e 15 42
e 15 47
e 15 48
e 15 50
e 15 58
e 15 63
e 15 64
e 15 66
e 15 67
e 15 73
e 15 76
e 15 77
e 16 20
e 16 22
e 16 24
e 16 25
e 16 30
e 16 31
e 16 36
e 16 37
e 16 38
e 16 40
e 16 41
e 16 43
e 16 45
e 16 47
e 16 48
e 16 51
e 16 52
e 16 55
e 16 56
e 16 61
e 16 64
e 16 69
e 16 72
e 16 73
e 16 74
e 16 75
e 16 93
e 16 96
e 17 18
e 17 24
e 17 25
e 17 28
e 17 29
e 17 30
e 17 35
e 17 38
e 17 40
e 17 41
e 17 42
e 17 43
e 17 44
e 17 47
e 17 49
e 17 50
e 17 51
e 17 52
e 17 56
e 17 57
e 17 60
e 17 62
e 17 65
e 17 66
e 17 67
e 17 71
e 17 73
e 17 76
e 17 82
e 17 94
e 17 96
e 18 19
e 18 21
e 18 22
e 18 23
e 18 28
e 18 29
e 18 30
e 18 31
e 18 35
e 18 37
e 18 39
e 18 40
e 18 41
e 18 44
e 18 46
e 18 48
e 18 49
e 18 50
e 18 53
e 18 55
e 18 57
e 18 62
e 18 63
e 18 64
e 18 73
e 18 74
e 18 75
e 18 84
e 18 88
e 18 90
e 19 20
e 19 22
e 19 25
e 19 28
e 19 29
e 19 30
e 19 32
e 19 33
e 19 36
e 19 39
e 19 41
e 19 44
e 19 45
e 19 49
e 19 56
e 19 57
e 19 59
e 19 61
e 19 67
e 19 79
e 19 85
e 19 87
e 19 96
e 20 30
e 20 33
e 20 35
e 20 37
e 20 38
e 20 39
e 20 44
e 20 46
e 20 47
e 20 48
e 20 51
e 20 58
e 20 59
e 20 61
e 20 64
e 20 66
e 20 67
e 20 71
e 20 75
e 20 77
e 20 83
e 20 91
e 20 92
e 21 25
e 21 30
e 21 31
e 21 34
e 21 36
e 21 40
e 21 44
e 21 45
e 21 49
e 21 51
e 21 53
e 21 56
e 21 61
e 21 62
e 21 63
e 21 65
e 21 66
e 21 70
e 21 74
e 21 86
e 21 87
e 21 91
e 21 99
e 22 23
e 22 24
e 22 25
e 22 27
e 22 28
e 22 29
e 22 30
e 22 31
e 22 34
e 22 36
e 22 37
e 22 41
e 22 45
e 22 46
e 22 47
e 22 48
e 22 52
e 22 56
e 22 60
e 22 61
e 22 63
e 22 64
e 22 65
e 22 66
e 22 68
e 22 70
e 22 71
e 22 76
e 22 83
e 22 86
e 23 28
e 23 32
e 23 33
e 23 37
e 23 38
e 23 39
e 23 42
e 23 44
e 23 45
e 23 46
e 23 48
e 23 49
e 23 52
e 23 54
e 23 62
e 23 64
e 23 65
e 23 76
e 23 80
e 23 91
e 23 94
e 23 96
e 24 25
e 24 29
e 24 31
e 24 34
e 24 36
e 24 37
e 24 38
e 24 41
e 24 42
e 24 45
e 24 47
e 24 51
e 24 53
e 24 54
e 24 55
e 24 57
e 24 60
e 24 61
e 24 62
e 24 63
e 24 64
e 24 71
e 24 74
e 24 75
e 24 78
e 24 90
e 24 96
e 25 28
e 25 31
e 25 33
e 25 36
e 25 39
e 25 40
e 25 41
e 25 44
e 25 45
e 25 46
e 25 50
e 25 55
e 25 58
e 25 60
e 25 61
e 25 66
e 25 67
e 25 68
e 25 69
e 25 73
e 25 77
e 25 82
e 25 87
e 25 97
e 25 99
e 26 27
e 26 28
e 26 36
e 26 39
e 26 41
e 26 43
e 26 48
e 26 49
e 26 52
e 26 53
e 26 54
e 26 56
e 26 60
e 26 61
e 26 63
e 26 68
e 26 69
e 26 73
e 26 83
e 26 93
e 27 29
e 27 30
e 27 31
e 27 34
e 27 35
e 27 36
e 27 52
e 27 53
e 27 54
e 27 55
e 27 58
e 27 59
e 27 60
e 27 71
e 27 73
e 27 74
e 27 75
e 27 77
e 27 86
e 27 90
e 28 30
e 28 31
e 28 34
e 28 36
e 28 37
e 28 41
e 28 42
e 28 43
e 28 44
e 28 46
e 28 47
e 28 50
e 28 51
e 28 52
e 28 53
e 28 58
e 28 64
e 28 74
e 28 79
e 28 80
e 28 87
e 28 96
e 29 33
e 29 36
e 29 44
e 29 46
e 29 47
e 29 48
e 29 49
e 29 53
e 29 55
e 29 56
e 29 58
e 29 59
e 29 60
e 29 61
e 29 63
e 29 65
e 29 66
e 29 69
e 29 77
e 29 83
e 29 86
e 29 89
e 29 95
e 30 32
e 30 34
e 30 35
e 30 36
e 30 38
e 30 40
e 30 44
e 30 46
e 30 52
e 30 57
e 30 60
e 30 62
e 30 64
e 30 65
e 30 77
e 30 81
e 30 90
e 30 95
e 30 96
e 30 97
e 30 99
e 31 32
e 31 33
e 31 34
e 31 38
e 31 39
e 31 41
e 31 42
e 31 43
e 31 44
e 31 48
e 31 50
e 31 51
e 31 53
e 31 55
e 31 62
e 31 65
e 31 67
e 31 68
e 31 77
e 31 86
e 31 95
e 31 100
e 32 33
e 32 34
e 32 35
e 32 48
e 32 49
e 32 51
e 32 52
e 32 55
e 32 57
e 32 59
e 32 60
e 32 62
e 32 65
e 32 69
e 32 71
e 32 72
e 32 78
e 32 79
e 32 81
e 32 83
e 32 85
e 32 86
e 32 87
e 32 90
e 32 94
e 32 95
e 33 35
e 33 36
e 33 37
e 33 39
e 33 42
e 33 44
e 33 45
e 33 48
e 33 51
e 33 55
e 33 62
e 33 66
e 33 71
e 33 76
e 33 77
e 33 89
e 33 90
e 34 35
e 34 38
e 34 42
e 34 43
e 34 44
e 34 47
e 34 50
e 34 52
e 34 53
e 34 57
e 34 64
e 34 66
e 34 68
e 34 69
e 34 71
e 34 73
e 34 75
e 34 81
e 34 83
e 34 89
e 34 91
e 34 92
e 34 99
e 35 38
e 35 40
e 35 41
e 35 42
e 35 43
e 35 45
e 35 47
e 35 51
e 35 55
e 35 56
e 35 57
e 35 63
e 35 66
e 35 68
e 35 69
e 35 77
e 35 82
e 35 93
e 36 39
e 36 42
e 36 43
e 36 47
e 36 48
e 36 49
e 36 52
e 36 54
e 36 55
e 36 56
e 36 57
e 36 58
e 36 61
e 36 67
e 36 72
e 36 85
e 36 99
e 37 41
e 37 43
e 37 44
e 37 55
e 37 57
e 37 59
e 37 60
e 37 63
e 37 64
e 37 66
e 37 67
e 37 69
e 37 72
e 37 73
e 37 75
e 38 42
e 38 44
e 38 47
e 38 49
e 38 53
e 38 56
e 38 59
e 38 63
e 38 66
e 38 67
e 38 75
e 38 76
e 38 77
e 38 78
e 38 79
e 38 83
e 38 86
e 38 88
e 38 89
e 38 90
e 38 93
e 38 96
e 38 97
e 39 41
e 39 42
e 39 44
e 39 47
e 39 51
e 39 54
e 39 55
e 39 56
e 39 59
e 39 61
e 39 62
e 39 65
e 39 66
e 39 67
e 39 70
e 39 71
e 39 72
e 39 73
e 39 75
e 39 78
e 39 80
e 39 93
e 39 95
e 40 42
e 40 45
e 40 48
e 40 49
e 40 53
e 40 54
e 40 55
e 40 59
e 40 61
e 40 62
e 40 63
e 40 66
e 40 77
e 40 82
e 41 43
e 41 44
e 41 47
e 41 48
e 41 50
e 41 56
e 41 57
e 41 60
e 41 63
e 41 69
e 41 70
e 41 72
e 41 73
e 41 74
e 41 75
e 41 82
e 41 93
e 41 96
e 41 97
e 42 43
e 42 44
e 42 46
e 42 49
e 42 53
e 42 54
e 42 59
e 42 64
e 42 66
e 42 68
e 42 71
e 42 73
e 42 76
e 42 82
e 42 92
e 42 95
e 43 44
e 43 45
e 43 47
e 43 54
e 43 56
e 43 58
e 43 68
e 43 70
e 43 71
e 43 76
e 43 99
e 44 47
e 44 50
e 44 53
e 44 56
e 44 59
e 44 60
e 44 65
e 44 66
e 44 70
e 44 77
e 44 84
e 44 85
e 44 88
e 44 90
e 44 97
e 44 99
e 45 46
e 45 48
e 45 53
e 45 56
e 45 57
e 45 63
e 45 64
e 45 66
e 45 69
e 45 71
e 45 75
e 45 77
e 45 79
e 45 82
e 45 85
e 45 92
e 45 94
e 45 97
e 46 47
e 46 49
e 46 51
e 46 59
e 46 60
e 46 63
e 46 64
e 46 65
e 46 68
e 46 69
e 46 70
e 46 72
e 46 73
e 46 74
e 46 76
e 46 78
e 47 50
e 47 51
e 47 53
e 47 54
e 47 56
e 47 57
e 47 58
e 47 62
e 47 64
e 47 65
e 47 67
e 47 71
e 47 75
e 47 78
e 47 97
e 48 56
e 48 63
e 48 64
e 48 66
e 48 68
e 48 69
e 48 70
e 48 77
e 48 79
e 48 81
e 48 88
e 49 54
e 49 60
e 49 62
e 49 64
e 49 66
e 49 67
e 49 70
e 49 73
e 49 75
e 49 76
e 49 77
e 49 85
e 49 88
e 49 91
e 50 54
e 50 56
e 50 57
e 50 58
e 50 59
e 50 61
e 50 62
e 50 64
e 50 65
e 50 68
e 50 70
e 50 72
e 50 73
e 50 74
e 50 75
e 50 84
e 50 89
e 50 94
e 51 56
e 51 57
e 51 58
e 51 62
e 51 70
e 51 72
e 51 74
e 51 75
e 51 80
e 51 83
e 51 84
e 51 85
e 51 86
e 51 88
e 51 89
e 51 96
e 51 98
e 52 55
e 52 56
e 52 57
e 52 59
e 52 60
e 52 63
e 52 64
e 52 65
e 52 67
e 52 69
e 52 70
e 52 71
e 52 73
e 52 74
e 52 75
e 52 78
e 52 79
e 52 82
e 52 83
e 52 87
e 52 88
e 52 90
e 52 91
e 53 55
e 53 56
e 53 57
e 53 58
e 53 65
e 53 67
e 53 70
e 53 74
e 53 76
e 53 77
e 53 85
e 53 88
e 53 89
e 53 92
e 53 93
e 54 56
e 54 59
e 54 60
e 54 62
e 54 63
e 54 64
e 54 68
e 54 69
e 54 70
e 54 75
e 54 80
e 54 81
e 54 82
e 54 84
e 54 85
e 54 89
e 54 91
e 54 100
e 55 58
e 55 59
e 55 60
e 55 62
e 55 63
e 55 67
e 55 68
e 55 70
e 55 71
e 55 77
e 55 78
e 55 80
e 55 83
e 55 85
e 55 86
e 55 91
e 55 99
e 56 61
e 56 62
e 56 63
e 56 64
e 56 67
e 56 70
e 56 71
e 56 73
e 56 75
e 56 79
e 56 80
e 56 82
e 56 86
e 56 92
e 56 97
e 57 62
e 57 63
e 57 66
e 57 76
e 57 79
e 57 81
e 57 84
e 57 87
e 57 91
e 57 95
e 58 62
e 58 63
e 58 66
e 58 67
e 58 72
e 58 73
e 58 80
e 58 90
e 58 91
e 58 92
e 59 64
e 59 67
e 59 68
e 59 71
e 59 72
e 59 74
e 59 75
e 59 78
e 59 81
e 59 83
e 59 87
e 59 90
e 59 92
e 59 94
e 59 97
e 60 61
e 60 64
e 60 65
e 60 68
e 60 69
e 60 70
e 60 72
e 60 73
e 60 76
e 60 78
e 60 84
e 60 87
e 60 88
e 60 91
e 60 94
e 60 96
e 60 97
e 61 63
e 61 66
e 61 67
e 61 71
e 61 72
e 61 74
e 61 81
e 61 82
e 61 85
e 61 86
e 61 87
e 61 88
e 61 89
e 61 90
e 61 91
e 61 92
e 61 95
e 61 99
e 62 65
e 62 66
e 62 72
e 62 75
e 62 76
e 62 79
e 62 80
e 62 82
e 62 83
e 62 85
e 62 87
e 62 89
e 63 64
e 63 67
e 63 68
e 63 73
e 63 74
e 63 75
e 63 76
e 63 79
e 63 81
e 63 85
e 63 87
e 63 88
e 63 89
e 63 90
e 63 100
e 64 68
e 64 71
e 64 73
e 64 75
e 64 77
e 64 78
e 64 80
e 64 81
e 64 83
e 64 89
e 64 90
e 64 93
e 64 98
e 65 68
e 65 72
e 65 73
e 65 77
e 65 82
e 65 88
e 65 90
e 65 91
e 66 69
e 66 72
e 66 76
e 66 77
e 66 78
e 66 81
e 66 82
e 66 86
e 66 88
e 66 98
e 67 68
e 67 69
e 67 77
e 67 78
e 67 79
e 67 80
e 67 83
e 67 89
e 67 91
e 68 72
e 68 75
e 68 80
e 68 81
e 68 85
e 68 89
e 68 90
e 69 73
e 69 74
e 69 75
e 69 76
e 69 79
e 69 80
e 69 89
e 69 94
e 69 99
e 70 71
e 70 72
e 70 73
e 70 78
e 70 80
e 70 81
e 70 89
e 70 91
e 70 92
e 71 72
e 71 76
e 71 79
e 71 80
e 71 81
e 71 85
e 71 89
e 71 91
e 72 74
e 72 75
e 72 78
e 72 79
e 72 85
e 72 86
e 72 92
e 72 98
e 73 74
e 73 75
e 73 80
e 73 81
e 73 82
e 73 83
e 73 86
e 73 87
e 73 89
e 73 90
e 73 91
e 73 93
e 74 76
e 74 78
e 74 84
e 74 85
e 74 88
e 74 91
e 74 96
e 74 97
e 75 78
e 75 80
e 75 81
e 75 82
e 75 83
e 75 84
e 75 86
e 75 87
e 75 88
e 75 91
e 75 92
e 76 77
e 76 79
e 76 80
e 76 82
e 76 84
e 76 89
e 76 94
e 76 98
e 77 78
e 77 80
e 77 84
e 77 87
e 77 96
e 78 79
e 78 80
e 78 81
e 78 85
e 78 90
e 78 91
e 78 93
e 78 94
e 78 98
e 78 100
e 79 83
e 79 87
e 79 89
e 79 90
e 79 91
e 79 92
e 80 82
e 80 83
e 80 84
e 80 86
e 80 89
e 80 92
e 81 84
e 81 90
e 81 91
e 82 87
e 82 88
e 82 90
e 82 91
e 83 86
e 83 92
e 83 97
e 84 85
e 84 86
e 84 87
e 84 89
e 84 90
e 84 91
e 84 92
e 85 86
e 85 97
e 85 100
e 86 87
e 86 90
e 86 95
e 86 99
e 87 88
e 87 93
e 88 89
e 88 90
e 88 98
e 89 91
e 90 91
e 90 97
e 90 98
e 91 99
e 92 96
e 93 96
e 94 96
e 94 98
e 95 97
e 97 99
e 99 100
